3 
4  20 34 48 
5  06 21 45 
6  00 15 30 45 
7  00 15 30 45 
8  00 15 30 45 
9  00 15 30 45 
10  00 15 30 45 
11  00 15 30 45 
12  00 15 30 45 
13  00 15 30 45 
14  00 15 30 45 
15  00 15 30 45 
16  00 15 30 45 
17  00 15 30 45 
18  01 16 30 45 
19  00 15 30 45 
20  00 15 30 45 
21  00 15 30 45 
22  00 18 33 53 
23 
